49
100
70	1
68	1
67	2
66	3
65	1
64	2
63	1
62	1
61	1
60	3
59	1
58	3
57	1
56	2
55	1
54	2
53	2
52	4
51	3
50	1
49	4
48	1
47	1
46	1
44	2
42	1
40	3
39	2
38	5
37	2
36	3
34	3
33	3
32	2
31	3
30	2
29	2
27	1
25	3
23	1
22	2
20	2
19	1
17	3
16	3
14	1
13	3
12	3
11	1
